INCAR created by Atomic Simulation Environment
 ENCUT = 400.000000
 SIGMA = 0.200000
 EDIFF = 1.00e-05
 EDIFFG = -1.00e-02
 GGA = PE
 ISPIN = 2
 ISMEAR = 1
 ISTART = 1
 NELM = 100
 LORBIT = 11
 NSW = 0   
 IBRION = 2
 ISIF = 3
 LCHARG = .TRUE.
 LWAVE = .TRUE.
 LASPH = .TRUE.
 LVTOT = .TRUE.

 NEDOS = 3000
