Ni Atom
0              ! number of k-points = 0 ->automatic generation scheme
Gamma          ! generate a Gamma centered grid
1 1 1          ! subdivisions N_1, N_2 and N_3 along recipr. l. vectors
