Ni                                      
   1.0000000000000000     
     9.9560634791100000    0.0000000000000000    0.0000000000000000
     0.0000000000000000    9.9560634791100000    0.0000000000000000
     0.0000000000000000    0.0000000000000000   50.0000000000000000
   Ni
   112
Direct
  0.0625000002119975  0.0625000002119975  0.4647706749214819
  0.6874999997656630  0.9374999997880096  0.5000000000000000
  0.6874999997656630  0.6874999997656630  0.4293718464866032
  0.6874999997656630  0.6874999997656630  0.5706281535133968
  0.6874999997656630  0.6874999997656630  0.5000000000000000
  0.6874999997656630  0.4374999997433164  0.4293718464866032
  0.6874999997656630  0.4374999997433164  0.5706281535133968
  0.6874999997656630  0.4374999997433164  0.5000000000000000
  0.6874999997656630  0.1874999997209557  0.4293718464866032
  0.6874999997656630  0.1874999997209557  0.5706281535133968
  0.6874999997656630  0.1874999997209557  0.5000000000000000
  0.5625000002566907  0.8125000002790443  0.3955062617827920
  0.6874999997656630  0.9374999997880096  0.5706281535133968
  0.5625000002566907  0.8125000002790443  0.6044937382172080
  0.5625000002566907  0.8125000002790443  0.4647706749214819
  0.5625000002566907  0.5625000002566907  0.3955062617827920
  0.5625000002566907  0.5625000002566907  0.6044937382172080
  0.5625000002566907  0.5625000002566907  0.5352293250785181
  0.5625000002566907  0.5625000002566907  0.4647706749214819
  0.5625000002566907  0.3125000002343441  0.3955062617827920
  0.5625000002566907  0.3125000002343441  0.6044937382172080
  0.5625000002566907  0.3125000002343441  0.5352293250785181
  0.5625000002566907  0.3125000002343441  0.4647706749214819
  0.5625000002566907  0.0625000002119975  0.3955062617827920
  0.5625000002566907  0.0625000002119975  0.6044937382172080
  0.5625000002566907  0.8125000002790443  0.5352293250785181
  0.5625000002566907  0.0625000002119975  0.5352293250785181
  0.6874999997656630  0.9374999997880096  0.4293718464866032
  0.8125000002790443  0.0625000002119975  0.5352293250785181
  0.9374999997880096  0.9374999997880096  0.5000000000000000
  0.9374999997880096  0.6874999997656630  0.4293718464866032
  0.9374999997880096  0.6874999997656630  0.5706281535133968
  0.9374999997880096  0.6874999997656630  0.5000000000000000
  0.9374999997880096  0.4374999997433164  0.4293718464866032
  0.9374999997880096  0.4374999997433164  0.5706281535133968
  0.9374999997880096  0.4374999997433164  0.5000000000000000
  0.9374999997880096  0.1874999997209557  0.4293718464866032
  0.9374999997880096  0.1874999997209557  0.5706281535133968
  0.9374999997880096  0.1874999997209557  0.5000000000000000
  0.8125000002790443  0.8125000002790443  0.3955062617827920
  0.8125000002790443  0.0625000002119975  0.4647706749214819
  0.8125000002790443  0.8125000002790443  0.6044937382172080
  0.8125000002790443  0.8125000002790443  0.4647706749214819
  0.8125000002790443  0.5625000002566907  0.3955062617827920
  0.8125000002790443  0.5625000002566907  0.6044937382172080
  0.8125000002790443  0.5625000002566907  0.5352293250785181
  0.8125000002790443  0.5625000002566907  0.4647706749214819
  0.8125000002790443  0.3125000002343441  0.3955062617827920
  0.8125000002790443  0.3125000002343441  0.6044937382172080
  0.8125000002790443  0.3125000002343441  0.5352293250785181
  0.8125000002790443  0.3125000002343441  0.4647706749214819
  0.8125000002790443  0.0625000002119975  0.3955062617827920
  0.8125000002790443  0.0625000002119975  0.6044937382172080
  0.8125000002790443  0.8125000002790443  0.5352293250785181
  0.5625000002566907  0.0625000002119975  0.4647706749214819
  0.4374999997433164  0.9374999997880096  0.4293718464866032
  0.4374999997433164  0.9374999997880096  0.5706281535133968
  0.1874999997209557  0.6874999997656630  0.4293718464866032
  0.1874999997209557  0.6874999997656630  0.5706281535133968
  0.1874999997209557  0.6874999997656630  0.5000000000000000
  0.1874999997209557  0.4374999997433164  0.4293718464866032
  0.1874999997209557  0.4374999997433164  0.5706281535133968
  0.1874999997209557  0.4374999997433164  0.5000000000000000
  0.1874999997209557  0.1874999997209557  0.4293718464866032
  0.1874999997209557  0.1874999997209557  0.5706281535133968
  0.1874999997209557  0.1874999997209557  0.5000000000000000
  0.0625000002119975  0.8125000002790443  0.3955062617827920
  0.0625000002119975  0.8125000002790443  0.6044937382172080
  0.1874999997209557  0.9374999997880096  0.5000000000000000
  0.0625000002119975  0.8125000002790443  0.5352293250785181
  0.0625000002119975  0.5625000002566907  0.3955062617827920
  0.0625000002119975  0.5625000002566907  0.6044937382172080
  0.0625000002119975  0.5625000002566907  0.5352293250785181
  0.0625000002119975  0.5625000002566907  0.4647706749214819
  0.0625000002119975  0.3125000002343441  0.3955062617827920
  0.0625000002119975  0.3125000002343441  0.6044937382172080
  0.0625000002119975  0.3125000002343441  0.5352293250785181
  0.0625000002119975  0.3125000002343441  0.4647706749214819
  0.0625000002119975  0.0625000002119975  0.3955062617827920
  0.0625000002119975  0.0625000002119975  0.6044937382172080
  0.0625000002119975  0.0625000002119975  0.5352293250785181
  0.0625000002119975  0.8125000002790443  0.4647706749214819
  0.1874999997209557  0.9374999997880096  0.5706281535133968
  0.1874999997209557  0.9374999997880096  0.4293718464866032
  0.3125000002343441  0.0625000002119975  0.4647706749214819
  0.4374999997433164  0.9374999997880096  0.5000000000000000
  0.4374999997433164  0.6874999997656630  0.4293718464866032
  0.4374999997433164  0.6874999997656630  0.5706281535133968
  0.4374999997433164  0.6874999997656630  0.5000000000000000
  0.4374999997433164  0.4374999997433164  0.4293718464866032
  0.4374999997433164  0.4374999997433164  0.5706281535133968
  0.4374999997433164  0.4374999997433164  0.5000000000000000
  0.4374999997433164  0.1874999997209557  0.4293718464866032
  0.4374999997433164  0.1874999997209557  0.5706281535133968
  0.4374999997433164  0.1874999997209557  0.5000000000000000
  0.3125000002343441  0.8125000002790443  0.3955062617827920
  0.3125000002343441  0.8125000002790443  0.6044937382172080
  0.3125000002343441  0.8125000002790443  0.5352293250785181
  0.3125000002343441  0.8125000002790443  0.4647706749214819
  0.3125000002343441  0.5625000002566907  0.3955062617827920
  0.3125000002343441  0.5625000002566907  0.6044937382172080
  0.3125000002343441  0.5625000002566907  0.5352293250785181
  0.3125000002343441  0.5625000002566907  0.4647706749214819
  0.3125000002343441  0.3125000002343441  0.3955062617827920
  0.3125000002343441  0.3125000002343441  0.6044937382172080
  0.3125000002343441  0.3125000002343441  0.5352293250785181
  0.3125000002343441  0.3125000002343441  0.4647706749214819
  0.3125000002343441  0.0625000002119975  0.3955062617827920
  0.3125000002343441  0.0625000002119975  0.6044937382172080
  0.3125000002343441  0.0625000002119975  0.5352293250785181
  0.9374999997880096  0.9374999997880096  0.5706281535133968
  0.9374999997880096  0.9374999997880096  0.4293718464866032

  0.00000000E+00  0.00000000E+00  0.00000000E+00
  0.00000000E+00  0.00000000E+00  0.00000000E+00
  0.00000000E+00  0.00000000E+00  0.00000000E+00
  0.00000000E+00  0.00000000E+00  0.00000000E+00
  0.00000000E+00  0.00000000E+00  0.00000000E+00
  0.00000000E+00  0.00000000E+00  0.00000000E+00
  0.00000000E+00  0.00000000E+00  0.00000000E+00
  0.00000000E+00  0.00000000E+00  0.00000000E+00
  0.00000000E+00  0.00000000E+00  0.00000000E+00
  0.00000000E+00  0.00000000E+00  0.00000000E+00
  0.00000000E+00  0.00000000E+00  0.00000000E+00
  0.00000000E+00  0.00000000E+00  0.00000000E+00
  0.00000000E+00  0.00000000E+00  0.00000000E+00
  0.00000000E+00  0.00000000E+00  0.00000000E+00
  0.00000000E+00  0.00000000E+00  0.00000000E+00
  0.00000000E+00  0.00000000E+00  0.00000000E+00
  0.00000000E+00  0.00000000E+00  0.00000000E+00
  0.00000000E+00  0.00000000E+00  0.00000000E+00
  0.00000000E+00  0.00000000E+00  0.00000000E+00
  0.00000000E+00  0.00000000E+00  0.00000000E+00
  0.00000000E+00  0.00000000E+00  0.00000000E+00
  0.00000000E+00  0.00000000E+00  0.00000000E+00
  0.00000000E+00  0.00000000E+00  0.00000000E+00
  0.00000000E+00  0.00000000E+00  0.00000000E+00
  0.00000000E+00  0.00000000E+00  0.00000000E+00
  0.00000000E+00  0.00000000E+00  0.00000000E+00
  0.00000000E+00  0.00000000E+00  0.00000000E+00
  0.00000000E+00  0.00000000E+00  0.00000000E+00
  0.00000000E+00  0.00000000E+00  0.00000000E+00
  0.00000000E+00  0.00000000E+00  0.00000000E+00
  0.00000000E+00  0.00000000E+00  0.00000000E+00
  0.00000000E+00  0.00000000E+00  0.00000000E+00
  0.00000000E+00  0.00000000E+00  0.00000000E+00
  0.00000000E+00  0.00000000E+00  0.00000000E+00
  0.00000000E+00  0.00000000E+00  0.00000000E+00
  0.00000000E+00  0.00000000E+00  0.00000000E+00
  0.00000000E+00  0.00000000E+00  0.00000000E+00
  0.00000000E+00  0.00000000E+00  0.00000000E+00
  0.00000000E+00  0.00000000E+00  0.00000000E+00
  0.00000000E+00  0.00000000E+00  0.00000000E+00
  0.00000000E+00  0.00000000E+00  0.00000000E+00
  0.00000000E+00  0.00000000E+00  0.00000000E+00
  0.00000000E+00  0.00000000E+00  0.00000000E+00
  0.00000000E+00  0.00000000E+00  0.00000000E+00
  0.00000000E+00  0.00000000E+00  0.00000000E+00
  0.00000000E+00  0.00000000E+00  0.00000000E+00
  0.00000000E+00  0.00000000E+00  0.00000000E+00
  0.00000000E+00  0.00000000E+00  0.00000000E+00
  0.00000000E+00  0.00000000E+00  0.00000000E+00
  0.00000000E+00  0.00000000E+00  0.00000000E+00
  0.00000000E+00  0.00000000E+00  0.00000000E+00
  0.00000000E+00  0.00000000E+00  0.00000000E+00
  0.00000000E+00  0.00000000E+00  0.00000000E+00
  0.00000000E+00  0.00000000E+00  0.00000000E+00
  0.00000000E+00  0.00000000E+00  0.00000000E+00
  0.00000000E+00  0.00000000E+00  0.00000000E+00
  0.00000000E+00  0.00000000E+00  0.00000000E+00
  0.00000000E+00  0.00000000E+00  0.00000000E+00
  0.00000000E+00  0.00000000E+00  0.00000000E+00
  0.00000000E+00  0.00000000E+00  0.00000000E+00
  0.00000000E+00  0.00000000E+00  0.00000000E+00
  0.00000000E+00  0.00000000E+00  0.00000000E+00
  0.00000000E+00  0.00000000E+00  0.00000000E+00
  0.00000000E+00  0.00000000E+00  0.00000000E+00
  0.00000000E+00  0.00000000E+00  0.00000000E+00
  0.00000000E+00  0.00000000E+00  0.00000000E+00
  0.00000000E+00  0.00000000E+00  0.00000000E+00
  0.00000000E+00  0.00000000E+00  0.00000000E+00
  0.00000000E+00  0.00000000E+00  0.00000000E+00
  0.00000000E+00  0.00000000E+00  0.00000000E+00
  0.00000000E+00  0.00000000E+00  0.00000000E+00
  0.00000000E+00  0.00000000E+00  0.00000000E+00
  0.00000000E+00  0.00000000E+00  0.00000000E+00
  0.00000000E+00  0.00000000E+00  0.00000000E+00
  0.00000000E+00  0.00000000E+00  0.00000000E+00
  0.00000000E+00  0.00000000E+00  0.00000000E+00
  0.00000000E+00  0.00000000E+00  0.00000000E+00
  0.00000000E+00  0.00000000E+00  0.00000000E+00
  0.00000000E+00  0.00000000E+00  0.00000000E+00
  0.00000000E+00  0.00000000E+00  0.00000000E+00
  0.00000000E+00  0.00000000E+00  0.00000000E+00
  0.00000000E+00  0.00000000E+00  0.00000000E+00
  0.00000000E+00  0.00000000E+00  0.00000000E+00
  0.00000000E+00  0.00000000E+00  0.00000000E+00
  0.00000000E+00  0.00000000E+00  0.00000000E+00
  0.00000000E+00  0.00000000E+00  0.00000000E+00
  0.00000000E+00  0.00000000E+00  0.00000000E+00
  0.00000000E+00  0.00000000E+00  0.00000000E+00
  0.00000000E+00  0.00000000E+00  0.00000000E+00
  0.00000000E+00  0.00000000E+00  0.00000000E+00
  0.00000000E+00  0.00000000E+00  0.00000000E+00
  0.00000000E+00  0.00000000E+00  0.00000000E+00
  0.00000000E+00  0.00000000E+00  0.00000000E+00
  0.00000000E+00  0.00000000E+00  0.00000000E+00
  0.00000000E+00  0.00000000E+00  0.00000000E+00
  0.00000000E+00  0.00000000E+00  0.00000000E+00
  0.00000000E+00  0.00000000E+00  0.00000000E+00
  0.00000000E+00  0.00000000E+00  0.00000000E+00
  0.00000000E+00  0.00000000E+00  0.00000000E+00
  0.00000000E+00  0.00000000E+00  0.00000000E+00
  0.00000000E+00  0.00000000E+00  0.00000000E+00
  0.00000000E+00  0.00000000E+00  0.00000000E+00
  0.00000000E+00  0.00000000E+00  0.00000000E+00
  0.00000000E+00  0.00000000E+00  0.00000000E+00
  0.00000000E+00  0.00000000E+00  0.00000000E+00
  0.00000000E+00  0.00000000E+00  0.00000000E+00
  0.00000000E+00  0.00000000E+00  0.00000000E+00
  0.00000000E+00  0.00000000E+00  0.00000000E+00
  0.00000000E+00  0.00000000E+00  0.00000000E+00
  0.00000000E+00  0.00000000E+00  0.00000000E+00
  0.00000000E+00  0.00000000E+00  0.00000000E+00
  0.00000000E+00  0.00000000E+00  0.00000000E+00
