KPOINTS created by Atomic Simulation Environment
0
G
4 4 1 
0 0 0
