Ni                                      
   1.00000000000000     
     3.5150643890876738    0.0000000000000000    0.0000000000000000
     0.0000000000000000    3.5150643890876738    0.0000000000000000
     0.0000000000000000    0.0000000000000000    3.5150643890876738
   Ni
     4
Direct
  0.0000000000000000  0.0000000000000000  0.0000000000000000
  0.0000000000000000  0.5000000000000000  0.5000000000000000
  0.5000000000000000  0.0000000000000000  0.5000000000000000
  0.5000000000000000  0.5000000000000000  0.0000000000000000
 
  0.00000000E+00  0.00000000E+00  0.00000000E+00
  0.00000000E+00  0.00000000E+00  0.00000000E+00
  0.00000000E+00  0.00000000E+00  0.00000000E+00
  0.00000000E+00  0.00000000E+00  0.00000000E+00
